/*********************************************
 * OPL 22.1.0.0 Data
 * Author: naruto
 * Creation Date: Dec 6, 2022 at 8:24:30 AM
 *********************************************/
supp_region=5;
dem_region=5;
fixcost=[9000,6750,9750,6150,6000];
capacity=[20,20,20,20,20];
demand=[12,8,14,16,7];
transp_cost=[[81,92,101,13,115],[117,77,108,98,100],[102,105,95,19,111],[115,125,90,59,74],
			 [142,100,103,105,71]];